&CONTROL
    calculation = "nscf"
    max_seconds =  8.64000e+04
    pseudo_dir  = "C:\Users\ROG\.burai\.pseudopot"
/

&SYSTEM
    a                         =  1.33083e+01
    c                         =  1.50690e+01
    degauss                   =  1.00000e-02
    ecutrho                   =  2.25000e+02
    ecutwfc                   =  2.50000e+01
    ibrav                     = 4
    nat                       = 48
    nbnd                      = 336
    nspin                     = 2
    ntyp                      = 2
    occupations               = "smearing"
    smearing                  = "gaussian"
    starting_magnetization(1) =  2.00000e-01
    starting_magnetization(2) =  0.00000e+00
/

&ELECTRONS
    conv_thr         =  1.00000e-06
    electron_maxstep = 200
    mixing_beta      =  4.00000e-01
    startingpot      = "atomic"
    startingwfc      = "atomic+random"
/

&DOS
    degauss =  1.00000e-02
    deltae  =  1.00000e-02
    emax    =  5.00000e+01
    emin    = -5.00000e+01
    ngauss  = 0
/

&PROJWFC
    degauss =  1.00000e-02
    deltae  =  1.00000e-02
    emax    =  5.00000e+01
    emin    = -5.00000e+01
    ngauss  = 0
/

K_POINTS {automatic}
 2  2  2  0 0 0

ATOMIC_SPECIES
W     183.84000  W.pbe-nsp-van.UPF
Se     78.96000  Se.pbe-n-rrkjus_psl.1.0.0.UPF

ATOMIC_POSITIONS {angstrom}
W       1.663542   0.960439  11.301713
W       0.000007   3.841766  11.301713
W      -1.663528   6.723093  11.301713
W      -3.327063   9.604420  11.301713
W       4.990612   0.960439  11.301713
W       3.327077   3.841766  11.301713
W       1.663542   6.723093  11.301713
W       0.000007   9.604420  11.301713
W       8.317682   0.960439  11.301713
W       6.654147   3.841766  11.301713
W       4.990612   6.723093  11.301713
W       3.327077   9.604420  11.301713
W      11.644752   0.960439  11.301713
W       9.981217   3.841766  11.301713
W       8.317682   6.723093  11.301713
W       6.654147   9.604420  11.301713
Se     -0.000007   1.920889  12.982941
Se     -1.663542   4.802216  12.982941
Se     -3.327077   7.683543  12.982941
Se     -4.990612  10.564870  12.982941
Se      3.327063   1.920889  12.982941
Se      1.663528   4.802216  12.982941
Se     -0.000007   7.683543  12.982941
Se     -1.663542  10.564870  12.982941
Se      6.654133   1.920889  12.982941
Se      4.990598   4.802216  12.982941
Se      3.327063   7.683543  12.982941
Se      1.663528  10.564870  12.982941
Se      9.981203   1.920889  12.982941
Se      8.317668   4.802216  12.982941
Se      6.654133   7.683543  12.982941
Se      4.990598  10.564870  12.982941
Se     -0.000007   1.920889   9.620485
Se     -1.663542   4.802216   9.620485
Se     -3.327077   7.683543   9.620485
Se     -4.990612  10.564870   9.620485
Se      3.327063   1.920889   9.620485
Se      1.663528   4.802216   9.620485
Se     -0.000007   7.683543   9.620485
Se     -1.663542  10.564870   9.620485
Se      6.654133   1.920889   9.620485
Se      4.990598   4.802216   9.620485
Se      3.327063   7.683543   9.620485
Se      1.663528  10.564870   9.620485
Se      9.981203   1.920889   9.620485
Se      8.317668   4.802216   9.620485
Se      6.654133   7.683543   9.620485
Se      4.990598  10.564870   9.620485


