&CONTROL
    calculation = "bands"
    max_seconds =  8.64000e+04
    pseudo_dir  = "C:\Users\ROG\.burai\.pseudopot"
/

&SYSTEM
    a           =  7.46628e+00
    degauss     =  1.00000e-02
    ecutrho     =  4.23668e+02
    ecutwfc     =  4.70743e+01
    ibrav       = 1
    nat         = 16
    nbnd        = 124
    ntyp        = 2
    occupations = "smearing"
    smearing    = "gaussian"
/

&ELECTRONS
    conv_thr         =  1.00000e-06
    electron_maxstep = 200
    mixing_beta      =  7.00000e-01
    startingpot      = "atomic"
    startingwfc      = "atomic+random"
/

&BANDS
    lsym           = .FALSE.
    spin_component = 1
/

K_POINTS {tpiba_b}
8
gG     20
X      20
M      20
gG     20
R      20
X      0
M      20
R      0

ATOMIC_SPECIES
Sn    118.71000  Sn.pbe-dn-rrkjus_psl.1.0.0.UPF
Se     78.96000  Se.pbe-n-rrkjus_psl.1.0.0.UPF

ATOMIC_POSITIONS {angstrom}
Sn      1.866569   5.599707   5.599707
Sn      1.866569   1.866569   5.599707
Sn      3.733138   0.000000   0.000000
Sn      1.866569   1.866569   1.866569
Sn      1.866569   5.599707   1.866569
Sn      3.733138   3.733138   3.733138
Sn      5.599707   5.599707   1.866569
Sn      5.599707   1.866569   1.866569
Sn      0.000000   0.000000   3.733138
Sn      5.599707   1.866569   5.599707
Sn      5.599707   5.599707   5.599707
Sn      0.000000   3.733138   0.000000
Se      0.000000   0.000000   0.000000
Se      0.000000   3.733138   3.733138
Se      3.733138   0.000000   3.733138
Se      3.733138   3.733138   0.000000


